c array.sh: path:     /data/cnf/sc2022/main/Wallace_Bits_Fast_3.cnf.cnf.xz
c array.sh: name:     Wallace_Bits_Fast_3.cnf
c array.sh: task:     97
c array.sh: host:     c3n07
c array.sh: uname:    Linux c3n07 5.4.0-166-generic #183-Ubuntu SMP Mon Oct 2 11:28:33 UTC 2023 x86_64 x86_64 x86_64 GNU/Linux
c array.sh: start:    Fri 24 Nov 2023 02:37:39 PM CET
c array.sh: noturbo:  1
c array.sh: governor: 32 performance
c array.sh: tmp:      1%
c array.sh: unzipped: /tmp/local-unzipped-24715725-97-Wallace_Bits_Fast_3.cnf.cnf
c --- [ banner ] -------------------------------------------------------------
c 
c CaDiCaL SAT Solver
c Copyright (c) 2016-2023 A. Biere, M. Fleury, N. Froleyks, K. Fazekas, F. Pollitt
c 
c Version 1.9.0+vivify+0j 3637700f13e5f86519137ce8e91672ec524e8d4d
c g++ (Ubuntu 9.4.0-1ubuntu1~20.04.2) 9.4.0 -Wall -Wextra -O3 -DNDEBUG
c Fri 24 Nov 2023 02:37:08 PM CET Linux cluster3 5.4.0-166-generic x86_64
c 
c --- [ parsing input ] ------------------------------------------------------
c 
c reading DIMACS file from '/tmp/local-unzipped-24715725-97-Wallace_Bits_Fast_3.cnf.cnf'
c opening file to read '/tmp/local-unzipped-24715725-97-Wallace_Bits_Fast_3.cnf.cnf'
c found 'p cnf 15479 61596' header
c parsed 61596 clauses in 0.04 seconds process time
c 
c --- [ options ] ------------------------------------------------------------
c 
c   --profile=4                    (different from default '2')
c 
c --- [ solving ] ------------------------------------------------------------
c 
c time measured in process time since initialization
c 
c  seconds  reductions  redundant  irredundant
c         MB    restarts       trail      variables
c          level   conflicts       glue        remaining
c 
c *  0.04 12  0 0   0    0    0  0% 0 61488 15371 99%
c {  0.05 15  0 0   0    0    0  0% 0 61488 15371 99%
c i  0.05 15 70 0   0    3    1  2% 0 61487 15370 99%
c i  0.05 15 74 0   0    6    2  2% 0 61486 15369 99%
c i  0.05 15 76 0   0    9    3  2% 0 61485 15368 99%
c i  0.06 15 78 0   0   12    4  2% 0 61484 15367 99%
c i  0.06 15 79 0   0   15    5  2% 0 61483 15366 99%
c i  0.06 15 80 0   0   18    6  2% 0 61482 15365 99%
c i  0.06 15 82 0   0   21    7  2% 0 61481 15364 99%
c i  0.06 15 83 0   0   24    8  2% 0 61480 15363 99%
c i  0.06 15 84 0   0   27    9  2% 0 61479 15362 99%
c i  0.06 15 85 0   0   30   10  2% 0 61478 15361 99%
c i  0.06 15 87 0   0   33   11  2% 0 61477 15360 99%
c i  0.06 15 88 0   0   36   12  2% 0 61476 15359 99%
c i  0.06 15 89 0   0   39   13  2% 0 61475 15358 99%
c i  0.06 15 91 0   0   42   14  2% 0 61474 15357 99%
c i  0.06 15 93 0   0   45   15  2% 0 61473 15356 99%
c i  0.06 15 94 0   0   48   16  2% 0 61472 15355 99%
c i  0.06 15 96 0   0   51   17  2% 0 61471 15354 99%
c i  0.06 15 98 0   0   54   18  2% 0 61470 15353 99%
c 
c  seconds  reductions  redundant  irredundant
c         MB    restarts       trail      variables
c          level   conflicts       glue        remaining
c 
c i  0.06 15 99 0   0   57   19  2% 0 61469 15352 99%
c i  0.06 15 101 0   0   60   20  2% 0 61468 15351 99%
c i  0.06 15 102 0   0   63   21  2% 0 61467 15350 99%
c i  0.06 15 104 0   0   66   22  2% 0 61466 15349 99%
c i  0.06 15 107 0   0   69   23  2% 0 61465 15348 99%
c i  0.06 15 109 0   0   72   24  2% 0 61464 15347 99%
c i  0.06 15 111 0   0   75   25  2% 0 61463 15346 99%
c i  0.06 15 113 0   0   78   26  2% 0 61462 15345 99%
c i  0.06 15 116 0   0   81   27  2% 0 61461 15344 99%
c i  0.06 15 118 0   0   84   28  2% 0 61460 15343 99%
c i  0.06 15 119 0   0   87   29  2% 0 61459 15342 99%
c i  0.06 15 121 0   0   90   30  2% 0 61458 15341 99%
c i  0.06 15 118 0   0   95   31  2% 1 61456 15339 99%
c -  0.11 15 87 1  34  300  103  3% 1 61047 15339 99%
c u  0.12 15 87 1  34  300  101  3% 1 61047 15335 99%
c v  0.13 15 87 1  34  300   99  3% 1 61047 15331 99%
c t  0.17 15 87 1  34  300   66  3% 1 61017 15330 99%
c i  0.26 15 154 1  99  498  133  4% 1 60952 15328 99%
c i  0.26 15 155 1  99  501  134  4% 1 60951 15325 99%
c i  0.35 15 209 1 162  855  330  5% 1 60854 15321 99%
c 
c  seconds   reductions  redundant  irredundant
c         MB     restarts       trail      variables
c           level   conflicts       glue        remaining
c 
c i  0.35 15 211 1 165  870  341  6% 1 60852 15313 99%
c i  0.35 15 211 1 166  871  341  5% 1 60852 15305 99%
c i  0.35 15 211 1 166  872  341  5% 1 60852 15297 99%
c i  0.35 15 210 1 166  873  341  5% 1 60852 15280 99%
c -  0.38 17 214 2 166  903  323  6% 1 60639 15280 99%
c i  0.39 17 221 2 171  968  357  6% 1 60619 15251 99%
c i  0.39 17 221 2 171  969  357  6% 1 60619 15219 98%
c i  0.39 17 220 2 171  970  357  6% 1 60619 15187 98%
c i  0.39 17 220 2 171  971  357  6% 1 60619 15138 98%
c i  0.39 17 220 2 171  972  357  6% 1 60619 15135 98%
c i  0.39 17 220 2 171  977  358  6% 1 60617 15133 98%
c }  0.39 17 223 2 171 1001  370  6% 1 60609 15133 98%
c [  0.39 17  0 2 171 1001  370  0% 0 60609 15133 98%
c O  0.40 17 35 2 171 1002  371 91% 35 60609 15133 98%
c -  2.54 18 30 3 171 1803  308 91% 30 60132 15133 98%
c i  3.27 18 30 3 172 2083  319 91% 30 60132 15122 98%
c i  4.01 18 30 3 172 2368  328 91% 30 60132 15118 98%
c ]  5.65 18 30 3 172 3001  348 91% 30 60132 15118 98%
c {  5.65 18 223 3 172 3001  348  6% 1 60132 15118 98%
c i  5.65 18 222 3 172 3003  348  6% 1 60132 15078 97%
c 
c  seconds   reductions  redundant  irredundant
c         MB     restarts       trail      variables
c           level   conflicts       glue        remaining
c 
c -  5.66 18 222 4 172 3003  302  6% 1 59950 15078 97%
c F  5.66 18 222 4 172 3004  303  6% 1 59950 15078 97%
c i  5.67 18 220 4 172 3023  311  6% 1 59948 15063 97%
c i  5.67 18 220 4 172 3024  311  6% 1 59948 15057 97%
c i  5.67 18 220 4 172 3025  311  6% 1 59948 15051 97%
c i  5.67 18 220 4 172 3026  311  6% 1 59948 15045 97%
c i  5.67 18 220 4 172 3027  311  6% 1 59948 15039 97%
c i  5.71 18 241 4 189 3324  433  7% 1 59864 15037 97%
c i  5.71 18 240 4 189 3327  434  7% 1 59863 15035 97%
c i  5.76 18 350 4 189 3824  591 10% 1 59700 15008 97%
c i  5.76 18 350 4 189 3825  591 10% 1 59700 15006 97%
c i  5.77 18 366 4 194 3888  624 11% 1 59686 15000 97%
c i  5.77 18 365 4 195 3891  626 11% 1 59686 14996 97%
c i  5.77 18 365 4 196 3893  627 11% 1 59686 14990 97%
c i  5.77 18 365 4 196 3894  627 10% 1 59686 14988 97%
c s  5.83 19 360 4 211 4001  650 11% 2 59563 14988 97%
c t  5.84 19 360 4 211 4001  610 11% 2 59560 14828 96%
c e  6.06 21 360 4 211 4001  121 11% 2 39389 6221 40%
c s  6.09 21 360 4 211 4001  118 11% 2 36219 6221 40%
c e  6.15 21 360 4 211 4001  106 11% 2 35752 5756 37%
c 
c  seconds   reductions  redundant  irredundant
c         MB     restarts       trail     variables
c           level   conflicts       glue       remaining
c 
c -  6.28 21 271 5 341 4503  483 41% 2 35751 5756 37%
c u  6.31 21 271 5 341 4503  477 41% 2 35751 5756 37%
c v  6.32 21 271 5 341 4503  477 41% 2 35751 5756 37%
c t  6.36 21 271 5 341 4503  472 41% 2 35627 5754 37%
c 3  6.45 21 220 5 465 5000 3497 35% 3 35620 5754 37%
c 2  6.46 21 220 5 465 5000 3496 35% 3 35620 5754 37%
c p  6.57 21 220 5 465 5000 67254 35% 3 35620 5743 37%
c #  6.76 21 163 5 729 6005 68188 36% 4 35619 5743 37%
c -  6.85 21 151 6 801 6303 3301 37% 4 35529 5743 37%
c }  6.95 21 131 6 947 7008 3977 36% 4 35529 5743 37%
c [  6.95 21 30 6 947 7008 3977 244% 30 35529 5743 37%
c -  7.63 23 42 7 948 8404 4103 173% 27 35527 5743 37%
c I  8.31 23 41 7 949 10007 5605 139% 23 35526 5743 37%
c -  8.45 25 45 8 950 10804 4915 130% 22 35526 5743 37%
c -  9.12 25 46 9 952 13506 5303 113% 21 35526 5743 37%
c u  9.15 25 46 9 952 13506 5281 113% 21 35526 5743 37%
c v  9.17 25 46 9 952 13506 5261 113% 21 35526 5743 37%
c x  9.23 25 46 9 952 13506 5254 113% 21 35521 5741 37%
c t  9.23 25 46 9 952 13506 5253 113% 21 35518 5741 37%
c s  9.50 25 46 9 952 14542 6165 110% 20 34764 5741 37%
c 
c  seconds  reductions   redundant    irredundant
c         MB    restarts        trail       variables
c          level    conflicts        glue        remaining
c 
c t  9.51 25 46 9 952 14542 6165 110% 20 34743 5741 37%
c e  9.54 25 46 9 952 14542 5929 110% 20 34654 5675 37%
c s  9.55 25 46 9 952 14542 5910 110% 20 34482 5675 37%
c e  9.56 25 46 9 952 14542 5392 110% 20 34468 5668 37%
c 3  9.70 25 46 9 952 15001 7228 108% 20 34468 5668 37%
c 2  9.71 25 46 9 952 15001 8086 108% 20 34468 5668 37%
c p  9.88 39 46 9 952 15001 291875 108% 20 34468 5660 37%
c B  9.91 40 46 9 952 15008 291882 108% 20 34468 5660 37%
c ]  9.91 40 46 9 952 15008 291882 108% 20 34468 5660 37%
c {  9.91 40 131 9 952 15008 291882 36% 4 34468 5660 37%
c - 10.21 44 102 10 1277 16507 6958 37% 5 34400 5660 37%
c i 10.30 44 92 10 1330 17236 7621 35% 5 34400 5659 37%
c i 10.59 44 76 10 1685 19155 9444 36% 5 34400 5658 37%
c - 10.69 44 72 11 1781 19807 7326 37% 5 34378 5658 37%
c B 10.88 44 66 11 1979 21009 8469 37% 6 34378 5658 37%
c - 11.20 44 57 12 2265 23408 8873 37% 6 34378 5658 37%
c - 11.89 45 48 13 2791 27311 10483 39% 6 34378 5658 37%
c u 11.93 45 48 13 2791 27311 10462 39% 6 34378 5658 37%
c v 11.97 45 48 13 2791 27311 10446 39% 6 34378 5658 37%
c w 11.99 45 48 13 2791 27311 10446 39% 6 34367 5658 37%
c 
c  seconds  reductions      redundant  irredundant
c         MB     restarts          trail     variables
c          level      conflicts        glue       remaining
c 
c t 12.00 45 48 13 2791 27311 10437 39% 6 34364 5658 37%
c W 12.17 45 47 13 2879 28012 11098 38% 6 34364 5658 37%
c d 12.49 45 44 13 3257 30001 12979 38% 6 34360 5656 37%
c 3 12.50 45 44 13 3257 30001 14259 38% 6 34360 5656 37%
c p 12.68 45 44 13 3257 30001 252984 38% 6 34360 5623 36%
c s 12.86 51 44 13 3290 30169 252509 38% 6 34047 5623 36%
c t 12.90 51 44 13 3290 30169 252497 38% 6 34035 5623 36%
c e 12.93 51 44 13 3290 30169 240191 38% 6 33617 5567 36%
c s 12.99 51 44 13 3290 30169 240059 38% 6 33455 5567 36%
c e 13.01 51 44 13 3290 30169 235191 38% 6 33449 5558 36%
c } 13.17 51 43 13 3448 31009 235993 38% 6 33449 5558 36%
c [ 13.17 51 46 13 3448 31009 235993 108% 20 33449 5558 36%
c - 13.30 51 46 14 3448 31512 10639 106% 20 33449 5558 36%
c - 14.53 51 46 15 3451 36013 11960 94% 19 33449 5558 36%
c W 14.54 51 46 15 3451 36014 11961 94% 19 33449 5558 36%
c - 16.19 51 43 16 3454 40814 12398 91% 19 33449 5558 36%
c u 16.23 51 43 16 3454 40814 12391 91% 19 33449 5558 36%
c v 16.27 51 43 16 3454 40814 12387 91% 19 33449 5558 36%
c t 16.30 51 43 16 3454 40814 12378 91% 19 33432 5558 36%
c O 17.82 51 41 16 3455 45017 16235 88% 19 33432 5558 36%
c 
c  seconds  reductions      redundant   irredundant
c         MB     restarts          trail      variables
c          level      conflicts        glue        remaining
c 
c - 18.06 51 41 17 3456 45914 12940 87% 19 33432 5558 36%
c 3 19.26 51 40 17 3456 50002 17819 84% 19 33432 5558 36%
c 3 19.26 51 40 17 3456 50002 18317 84% 19 33432 5558 36%
c 2 19.28 51 40 17 3456 50002 18315 84% 19 33432 5558 36%
c p 19.43 51 40 17 3456 50002 167039 84% 19 33432 5551 36%
c s 19.84 51 40 17 3456 50885 167264 83% 19 33255 5551 36%
c t 19.86 51 40 17 3456 50885 167264 83% 19 33248 5551 36%
c e 19.89 51 40 17 3456 50885 162091 83% 19 33174 5526 36%
c s 19.93 51 40 17 3456 50885 162056 83% 19 33114 5526 36%
c e 19.95 51 40 17 3456 50885 158340 83% 19 33090 5520 36%
c - 20.15 51 40 18 3456 51314 11083 83% 19 33090 5520 36%
c B 21.24 51 39 18 3458 55019 14560 80% 19 33090 5520 36%
c - 21.70 51 40 19 3459 57016 13399 79% 19 33090 5520 36%
c u 21.75 51 40 19 3459 57016 13394 79% 19 33090 5520 36%
c v 21.80 51 40 19 3459 57016 13393 79% 19 33090 5520 36%
c t 21.84 51 40 19 3459 57016 13393 79% 19 33085 5520 36%
c ] 22.96 51 42 19 3463 63010 19109 77% 19 33085 5520 36%
c { 22.96 51 43 19 3463 63010 19109 38% 6 33085 5520 36%
c - 22.98 51 43 20 3465 63016 14230 38% 6 33085 5520 36%
c F 23.52 51 40 20 3804 66020 17010 38% 6 33085 5520 36%
c 
c  seconds  reductions      redundant  irredundant
c         MB     restarts          trail     variables
c          level      conflicts        glue       remaining
c 
c - 23.97 51 37 21 4187 69316 15273 37% 6 33085 5520 36%
c 3 24.89 51 34 21 5101 75003 22068 37% 7 33085 5520 36%
c 2 24.91 51 34 21 5101 75003 22532 37% 7 33085 5520 36%
c p 25.11 51 34 21 5101 75003 326595 37% 7 33085 5512 36%
c - 25.37 52 34 22 5280 75917 19030 37% 7 33023 5512 36%
c u 25.42 52 34 22 5280 75917 19012 37% 7 33023 5512 36%
c v 25.47 52 34 22 5280 75917 18996 37% 7 33023 5512 36%
c t 25.51 52 34 22 5280 75917 18995 37% 7 33023 5511 36%
c s 25.69 52 34 22 5421 76723 19512 37% 7 32834 5511 36%
c t 25.70 52 34 22 5421 76723 19509 37% 7 32832 5511 36%
c e 25.71 52 34 22 5421 76723 19053 37% 7 32808 5500 36%
c s 25.74 52 34 22 5421 76723 19021 37% 7 32703 5500 36%
c e 25.75 52 34 22 5421 76723 18858 37% 7 32700 5496 36%
c B 25.95 52 33 22 5559 78022 20084 37% 7 32700 5496 36%
c - 26.84 52 32 23 6143 82817 20032 37% 7 32700 5496 36%
c i 26.88 52 31 23 6164 82995 20193 37% 7 32700 5493 35%
c i 27.88 52 30 23 6596 87639 24300 39% 7 32700 5492 35%
c - 28.29 52 29 24 6975 90017 21500 39% 7 32670 5492 35%
c i 28.50 52 29 24 7121 90891 22264 39% 7 32670 5489 35%
c W 28.65 52 29 24 7122 91023 22268 39% 7 32612 5489 35%
c 
c  seconds  reductions      redundant  irredundant
c         MB     restarts          trail     variables
c          level      conflicts        glue       remaining
c 
c i 29.39 52 29 24 7691 94654 25573 39% 7 32612 5483 35%
c - 30.10 52 28 25 7911 97518 22639 40% 7 32534 5483 35%
c u 30.17 52 28 25 7911 97518 22619 40% 7 32534 5483 35%
c v 30.25 52 28 25 7911 97518 22605 40% 7 32534 5483 35%
c t 30.30 52 28 25 7911 97518 22587 40% 7 32521 5483 35%
c d 31.54 52 27 25 8975 105003 29621 39% 7 32489 5475 35%
c 3 31.56 52 27 25 8975 105003 31077 39% 7 32489 5475 35%
c 3 31.57 52 27 25 8975 105003 31523 39% 7 32489 5475 35%
c 2 31.58 52 27 25 8975 105003 31519 39% 7 32489 5475 35%
c p 31.75 52 27 25 8975 105003 185650 39% 7 32489 5472 35%
c # 31.77 52 27 25 8981 105028 185674 39% 7 32489 5472 35%
c - 31.87 52 27 26 9039 105318 25452 39% 7 32431 5472 35%
c s 32.32 52 27 26 9466 107598 27353 39% 7 32238 5472 35%
c t 32.33 52 27 26 9466 107598 27342 39% 7 32231 5472 35%
c e 32.35 52 27 26 9466 107598 26906 39% 7 32201 5445 35%
c s 32.38 52 27 26 9466 107598 26866 39% 7 32145 5445 35%
c e 32.39 52 27 26 9466 107598 26832 39% 7 32145 5443 35%
c - 33.59 52 27 27 10348 113421 26650 39% 8 32145 5443 35%
c B 34.89 52 27 27 11169 120031 32838 40% 8 32145 5443 35%
c - 35.43 52 26 28 11353 121821 27980 40% 8 32145 5443 35%
c 
c  seconds  reductions        redundant  irredundant
c         MB      restarts           trail     variables
c          level       conflicts         glue       remaining
c 
c u 35.50 52 26 28 11353 121821 27964 40% 8 32145 5443 35%
c v 35.56 52 26 28 11353 121821 27961 40% 8 32145 5443 35%
c t 35.61 52 26 28 11353 121821 27960 40% 8 32140 5443 35%
c } 36.62 52 26 28 11818 127011 32828 40% 8 32140 5443 35%
c [ 36.63 52 42 28 11818 127011 32828 77% 19 32140 5443 35%
c - 37.23 52 41 29 11819 130522 29613 77% 18 32140 5443 35%
c W 39.00 52 42 29 11823 136033 34928 76% 18 32140 5443 35%
c - 40.27 52 42 30 11825 139523 31276 77% 18 32140 5443 35%
c 2 40.47 52 42 30 11825 140003 33394 77% 18 32140 5443 35%
c p 40.64 52 42 30 11825 140003 184175 77% 18 32140 5440 35%
c s 42.11 52 43 30 11826 143468 186910 77% 18 32035 5440 35%
c t 42.14 52 43 30 11826 143468 186904 77% 18 32035 5440 35%
c e 42.16 52 43 30 11826 143468 184637 77% 18 31975 5432 35%
c s 42.27 52 43 30 11826 143468 184553 77% 18 31900 5432 35%
c - 44.56 52 42 31 11826 148823 34206 77% 18 31899 5432 35%
c u 44.66 52 42 31 11826 148823 34205 77% 18 31899 5431 35%
c v 44.74 52 42 31 11826 148823 34199 77% 18 31899 5431 35%
c w 44.80 52 42 31 11826 148823 34283 77% 18 31806 5431 35%
c t 44.81 52 42 31 11826 148823 34283 77% 18 31804 5431 35%
c I 46.09 52 42 31 11827 153035 38267 77% 18 31804 5431 35%
c 
c  seconds  reductions        redundant   irredundant
c         MB      restarts           trail      variables
c          level       conflicts         glue        remaining
c 
c - 48.20 55 41 32 11827 158424 31651 78% 19 31762 5431 35%
c - 52.60 55 39 33 11829 168325 31367 78% 19 31762 5431 35%
c B 53.60 55 39 33 11830 171041 33513 79% 20 31762 5431 35%
c - 57.02 55 38 34 11834 178526 29780 79% 20 31762 5431 35%
c u 57.16 55 38 34 11834 178526 29772 79% 20 31762 5431 35%
c v 57.26 55 38 34 11834 178526 29766 79% 20 31762 5431 35%
c w 57.30 55 38 34 11834 178526 29769 79% 20 31759 5431 35%
c x 57.55 55 38 34 11834 178526 29759 79% 20 31759 5431 35%
c t 57.55 55 38 34 11834 178526 29757 79% 20 31757 5431 35%
c d 58.23 55 37 34 11835 180003 30791 79% 20 31753 5430 35%
c 3 58.24 55 37 34 11835 180003 31912 79% 20 31753 5430 35%
c 3 58.25 55 37 34 11835 180003 32399 79% 20 31753 5430 35%
c p 58.47 55 37 34 11835 180003 312689 79% 20 31753 5423 35%
c s 60.98 60 37 34 11838 184334 315557 80% 20 31661 5423 35%
c t 61.01 60 37 34 11838 184334 315557 80% 20 31660 5423 35%
c e 61.04 60 37 34 11838 184334 310268 80% 20 31551 5406 35%
c s 61.19 60 37 34 11838 184334 310217 80% 20 31511 5406 35%
c e 61.22 60 37 34 11838 184334 309495 80% 20 31508 5403 35%
c - 63.29 60 36 35 11841 189027 30216 80% 20 31508 5403 35%
c W 63.77 60 36 35 11841 190044 31090 79% 20 31508 5403 35%
c 
c  seconds  reductions        redundant   irredundant
c         MB      restarts           trail      variables
c          level       conflicts         glue        remaining
c 
c - 66.69 60 36 36 11842 199829 31509 79% 20 31508 5403 35%
c O 69.95 60 38 36 11849 210045 41152 79% 21 31508 5403 35%
c - 70.13 60 37 37 11849 210930 32683 79% 21 31508 5403 35%
c u 70.25 60 37 37 11849 210930 32671 79% 21 31508 5403 35%
c v 70.38 60 37 37 11849 210930 32660 79% 21 31508 5403 35%
c x 70.55 60 37 37 11849 210930 32656 79% 21 31505 5403 35%
c t 70.55 60 37 37 11849 210930 32655 79% 21 31505 5403 35%
c - 73.64 60 38 38 11856 222330 33189 78% 20 31505 5403 35%
c 3 74.16 60 38 38 11857 225003 37141 77% 20 31504 5403 35%
c 3 74.17 60 38 38 11857 225003 37640 77% 20 31504 5403 35%
c p 74.36 60 38 38 11857 225003 273159 77% 20 31504 5402 35%
c s 76.21 63 38 38 11857 230124 277472 78% 20 31431 5402 35%
c t 76.24 63 38 38 11857 230124 277471 78% 20 31431 5402 35%
c e 76.27 63 38 38 11857 230124 274715 78% 20 31375 5392 35%
c s 76.38 63 38 38 11857 230124 274659 78% 20 31335 5392 35%
c B 76.71 63 38 38 11857 231047 275538 78% 20 31334 5392 35%
c - 77.73 49 37 39 11858 234030 35414 77% 20 31334 5392 35%
c - 81.37 53 37 40 11858 246031 35465 75% 19 31334 5392 35%
c u 81.51 53 37 40 11858 246031 35457 75% 19 31334 5392 35%
c v 81.67 53 37 40 11858 246031 35436 75% 19 31334 5392 35%
c 
c  seconds  reductions        redundant   irredundant
c         MB      restarts           trail      variables
c          level       conflicts         glue        remaining
c 
c w 81.72 53 37 40 11858 246031 35439 75% 19 31327 5392 35%
c W 84.73 53 36 40 11859 253048 41629 75% 19 31327 5392 35%
c ] 85.55 53 36 40 11859 255011 43327 75% 19 31327 5392 35%
c { 85.55 53 26 40 11859 255011 43327 40% 8 31327 5392 35%
c - 86.22 53 26 41 12287 258331 34770 40% 8 31327 5392 35%
c } 88.46 53 25 41 13379 270136 45753 40% 8 31327 5392 35%
c 1 88.46 53 25 41 13379 270136 45753 40% 8 31327 5392 35%
c 
c --- [ result ] -------------------------------------------------------------
c 
s SATISFIABLE
c 
c --- [ run-time profiling ] -------------------------------------------------
c 
c process time taken by individual solving procedures
c (percentage relative to process time for solving)
c 
c        81.58   92.27% search
c        61.65   69.73% stable
c        41.35   46.77% propagate
c        35.40   40.04% analyze
c        18.86   21.33% unstable
c        11.37   12.86% shrink
c         7.82    8.85% bump
c         6.84    7.73% simplify
c         5.20    5.88% minimize
c         2.66    3.01% vivify
c         1.51    1.70% probe
c         1.51    1.70% subsume
c         1.49    1.68% decide
c         1.06    1.20% walk
c         0.91    1.03% reduce
c         0.85    0.96% connect
c         0.76    0.86% collect
c         0.61    0.69% elim
c         0.27    0.30% decompose
c         0.22    0.24% restart
c         0.20    0.23% ternary
c         0.08    0.09% transred
c         0.06    0.06% backward
c         0.04    0.04% parse
c         0.03    0.04% compact
c         0.02    0.02% copy
c         0.02    0.02% lucky
c         0.01    0.01% deduplicate
c   =================================
c        88.42   99.96% solve
c 
c last line shows process time for solving
c (percentage relative to total process time)
c 
c --- [ statistics ] ---------------------------------------------------------
c 
c chronological:             48344        17.90 %  of conflicts
c conflicts:                270136      3055.13    per second
c decisions:                668905      7565.04    per second
c eliminated:                 8124        52.48 %  of all variables
c fixed:                      1952        12.61 %  of all variables
c learned:                  267650        99.08 %  per conflict
c learned_lits:           30633991       100.00 %  learned literals
c minimized:                     0         0.00 %  learned literals
c shrunken:               10202082        33.30 %  learned literals
c minishrunken:            5720950        18.68 %  learned literals
c otfs:                       4020         1.49 %  of conflict
c propagations:          183940833         2.08 M  per second
c reduced:                  185155        68.54 %  per conflict
c rephased:                     22     12278.91    interval
c restarts:                  13379        20.19    interval
c stabilizing:                   4        62.92 %  of conflicts
c substituted:                  11         0.07 %  of all variables
c subsumed:                  40133         0.88 %  of all clauses
c strengthened:              44355         0.97 %  of all clauses
c ternary:                   17168         1.10 %  of resolved
c trail reuses:                  0         0.00 %  of incremental calls
c vivified:                   3648         0.08 %  of all clauses
c walked:                        6     45022.67    interval
c weakened:                  28433         2.80    average size
c 
c seconds are measured in process time for solving
c 
c --- [ resources ] ----------------------------------------------------------
c 
c total process time since initialization:        88.46    seconds
c total real time since initialization:           88.46    seconds
c maximum resident set size of process:           63.43    MB
c 
c --- [ shutting down ] ------------------------------------------------------
c 
c exit 10
c array.sh: end:      Fri 24 Nov 2023 02:39:08 PM CET
